45
100
80	1
78	2
77	1
76	3
75	1
74	2
73	3
72	6
71	5
70	3
68	1
65	1
64	2
62	2
61	1
60	2
58	3
57	2
56	2
55	1
54	1
53	5
52	1
51	2
50	2
49	4
45	1
44	3
43	1
42	6
41	2
40	2
37	2
36	2
35	4
34	3
32	2
31	2
30	2
27	2
25	1
24	1
22	2
21	2
20	1
